width = 19;
height = 19;

grid = 
[| true,true,true,true,false,false,true,true,true,false,true,true,true,true,false,true,true,true,true
| true,true,true,true,false,true,true,true,true,false,true,true,true,true,false,true,true,true,true
| true,true,true,true,false,true,true,true,true,false,true,true,true,true,false,true,true,true,true
| true,true,true,true,true,true,true,false,true,true,true,false,true,true,true,true,false,false,false
| false,false,false,true,true,true,true,true,true,true,true,true,true,true,true,true,true,true,true
| true,true,true,true,true,true,false,true,true,true,true,true,false,false,true,true,true,true,true
| true,true,true,false,true,true,true,true,false,true,true,true,true,false,false,true,true,true,true
| true,true,true,true,false,true,true,true,true,false,false,true,true,true,true,false,true,true,true
| true,true,true,true,false,false,true,true,true,true,true,false,true,true,true,true,false,false,false
| true,true,true,true,true,true,true,true,true,true,true,true,true,true,true,true,true,true,true
| false,false,false,true,true,true,true,false,true,true,true,true,true,false,false,true,true,true,true
| true,true,true,false,true,true,true,true,false,false,true,true,true,true,false,true,true,true,true
| true,true,true,true,false,false,true,true,true,true,false,true,true,true,true,false,true,true,true
| true,true,true,true,true,false,false,true,true,true,true,true,false,true,true,true,true,true,true
| true,true,true,true,true,true,true,true,true,true,true,true,true,true,true,true,false,false,false
| false,false,false,true,true,true,true,false,true,true,true,false,true,true,true,true,true,true,true
| true,true,true,true,false,true,true,true,true,false,true,true,true,true,false,true,true,true,true
| true,true,true,true,false,true,true,true,true,false,true,true,true,true,false,true,true,true,true
| true,true,true,true,false,true,true,true,true,false,true,true,true,false,false,true,true,true,true
|];
number_of_clues = 126;
start_rows = [1,1,1,1,2,2,2,2,3,3,3,3,4,4,4,5,6,6,6,7,7,7,7,8,8,8,8,9,9,9,10,11,11,11,12,12,12,12,13,13,13,13,14,14,14,15,16,16,16,17,17,17,17,18,18,18,18,19,19,19,19,1,6,12,17,1,6,12,17,1,6,12,17,1,8,13,4,10,14,2,10,15,1,7,15,1,5,12,17,1,8,13,4,9,13,1,9,14,1,5,10,17,1,7,15,1,8,12,4,8,13,1,9,14,1,5,10,16,1,5,10,16,1,5,10,16];
start_cols = [1,7,11,16,1,6,11,16,1,6,11,16,1,9,13,4,1,8,15,1,5,10,16,1,6,12,17,1,7,13,1,4,9,16,1,5,11,16,1,7,12,17,1,8,14,1,4,9,13,1,6,11,16,1,6,11,16,1,6,11,16,1,1,1,1,2,2,2,2,3,3,3,3,4,4,4,5,5,5,6,6,6,7,7,7,8,8,8,8,9,9,9,10,10,10,11,11,11,12,12,12,12,13,13,13,14,14,14,15,15,15,16,16,16,17,17,17,17,18,18,18,18,19,19,19,19];
is_vertical = [false,false,false,false,false,false,false,false,false,false,false,false,false,false,false,false,false,false,false,false,false,false,false,false,false,false,false,false,false,false,false,false,false,false,false,false,false,false,false,false,false,false,false,false,false,false,false,false,false,false,false,false,false,false,false,false,false,false,false,false,false,true,true,true,true,true,true,true,true,true,true,true,true,true,true,true,true,true,true,true,true,true,true,true,true,true,true,true,true,true,true,true,true,true,true,true,true,true,true,true,true,true,true,true,true,true,true,true,true,true,true,true,true,true,true,true,true,true,true,true,true,true,true,true,true,true];
lens = [4,3,4,4,4,4,4,4,4,4,4,4,7,3,4,16,6,5,5,3,4,4,4,4,4,4,3,4,5,4,19,4,5,4,3,4,4,4,4,4,4,3,5,5,6,16,4,3,7,4,4,4,4,4,4,4,4,4,4,3,4,4,5,4,3,4,5,4,3,4,5,4,3,6,4,7,4,3,3,7,3,5,5,7,5,3,6,4,3,6,4,7,4,3,4,7,4,6,3,4,6,3,5,7,5,5,3,7,3,3,4,7,4,6,3,4,5,4,3,4,5,4,3,4,5,4];
